SDVRP instances/custom_instances/p04_1_splitx10_0.vrp
NAME:p04_1_splitx10_
BEST_KNOWN: 0
COMMENT: 0
DIMENSION: 695
CAPACITY: 2000
EDGE_WEIGHT_FORMAT: FUNCTION
EDGE_WEIGHT_TYPE: EXACT_2D
NODE_COORD_SECTION
1 0.00000 0.00000
2 13 -1
3 13 -1
4 13 -1
5 13 -1
6 20 14
7 20 14
8 22 -29
9 22 -29
10 22 -29
11 22 -29
12 22 -29
13 -27 -22
14 -27 -22
15 -27 -22
16 -27 -22
17 5 39
18 5 39
19 5 39
20 5 39
21 20 -2
22 20 -2
23 20 -2
24 20 -2
25 20 -2
26 20 -2
27 -17 45
28 -17 45
29 -17 45
30 -17 45
31 28 -8
32 28 -8
33 28 -8
34 -22 5
35 -22 5
36 -22 5
37 -22 5
38 -22 5
39 -22 5
40 -10 7
41 -10 7
42 -10 7
43 -10 7
44 -10 7
45 -10 7
46 43 48
47 43 48
48 43 48
49 43 48
50 43 48
51 43 48
52 43 48
53 11 -42
54 11 -42
55 11 -42
56 11 -42
57 11 -42
58 -49 39
59 -49 39
60 -49 39
61 -49 39
62 -49 39
63 -49 39
64 -3 48
65 -3 48
66 -3 48
67 -3 48
68 -3 48
69 -26 -44
70 -26 -44
71 -26 -44
72 -26 -44
73 -26 -44
74 -26 -44
75 -37 -18
76 -37 -18
77 -37 -18
78 -45 -21
79 -45 -21
80 -45 -21
81 0 9
82 0 9
83 0 9
84 0 9
85 0 9
86 4 21
87 4 21
88 4 21
89 10 49
90 10 49
91 10 49
92 10 49
93 10 49
94 10 49
95 10 49
96 -20 -14
97 -20 -14
98 -20 -14
99 -20 -14
100 2 -31
101 2 -31
102 2 -31
103 2 -31
104 2 -31
105 2 -31
106 2 -31
107 -26 -3
108 -26 -3
109 -27 -40
110 -27 -40
111 -27 -40
112 -27 -40
113 -27 -40
114 -32 23
115 -32 23
116 -32 23
117 -32 23
118 10 -10
119 10 -10
120 10 -10
121 10 -10
122 10 -10
123 10 -10
124 44 -9
125 44 -9
126 -21 31
127 -21 31
128 -21 31
129 -21 31
130 -21 31
131 -21 31
132 7 -4
133 7 -4
134 7 -4
135 18 36
136 18 36
137 18 36
138 18 36
139 18 36
140 18 36
141 18 36
142 18 36
143 -46 22
144 -46 22
145 -46 22
146 -46 22
147 -18 -45
148 -18 -45
149 -18 -45
150 -18 -45
151 -18 -45
152 -39 20
153 -39 20
154 -39 20
155 -39 20
156 -39 20
157 -39 20
158 -39 20
159 10 32
160 10 32
161 10 32
162 10 32
163 10 32
164 33 -45
165 33 -45
166 33 -45
167 33 -45
168 48 -35
169 48 -35
170 48 -35
171 48 -35
172 26 -31
173 26 -31
174 26 -31
175 26 -31
176 -18 -24
177 -18 -24
178 -18 -24
179 5 36
180 5 36
181 5 36
182 5 36
183 5 36
184 5 36
185 45 12
186 45 12
187 45 12
188 45 12
189 45 12
190 45 12
191 45 12
192 -12 -3
193 -12 -3
194 -12 -3
195 14 -27
196 14 -27
197 14 -27
198 14 -27
199 14 -27
200 2 -27
201 2 -27
202 2 -27
203 2 -27
204 -30 13
205 -30 13
206 -30 13
207 11 -3
208 11 -3
209 11 -3
210 11 -3
211 11 -3
212 -20 -14
213 -20 -14
214 -20 -14
215 -20 -14
216 -20 -14
217 29 49
218 29 49
219 29 49
220 29 49
221 29 49
222 -44 45
223 -44 45
224 -44 45
225 -44 45
226 -44 45
227 -44 45
228 -44 45
229 -44 45
230 -34 -19
231 -34 -19
232 -34 -19
233 -45 -26
234 -45 -26
235 50 27
236 50 27
237 50 27
238 50 27
239 4 46
240 4 46
241 4 46
242 -42 -24
243 -42 -24
244 -42 -24
245 -42 -24
246 -42 -24
247 -18 -43
248 -18 -43
249 -18 -43
250 -18 -43
251 39 -48
252 39 -48
253 29 0
254 29 0
255 -43 31
256 -43 31
257 -43 31
258 -43 31
259 -43 31
260 -43 31
261 -1 1
262 -1 1
263 -1 1
264 -1 1
265 -1 1
266 -1 1
267 -1 1
268 -27 21
269 -27 21
270 -27 21
271 -27 21
272 -27 21
273 -32 -21
274 -32 -21
275 -15 -33
276 -15 -33
277 -15 -33
278 -15 -33
279 -15 -33
280 -15 -33
281 16 -19
282 16 -19
283 16 -19
284 16 -19
285 -46 -22
286 -46 -22
287 -46 -22
288 -46 -22
289 -46 -22
290 -46 -22
291 2 -36
292 2 -36
293 2 -36
294 19 50
295 36 31
296 36 31
297 36 31
298 36 31
299 36 31
300 36 31
301 36 31
302 30 -24
303 30 -24
304 30 -24
305 30 -24
306 30 -24
307 -30 -28
308 -30 -28
309 -30 -28
310 -37 17
311 -37 17
312 -37 17
313 15 26
314 15 26
315 15 26
316 15 26
317 15 26
318 23 -7
319 23 -7
320 23 -7
321 23 -7
322 23 -7
323 23 -7
324 -42 -21
325 -42 -21
326 -42 -21
327 -42 -21
328 -42 -21
329 -42 -21
330 -42 -21
331 49 15
332 49 15
333 49 15
334 49 15
335 49 15
336 -15 -30
337 -15 -30
338 -15 -30
339 -15 -30
340 -15 -30
341 18 -2
342 18 -2
343 18 -2
344 44 -7
345 44 -7
346 44 -7
347 44 -7
348 44 -7
349 44 -7
350 7 -22
351 7 -22
352 7 -22
353 38 44
354 38 44
355 38 44
356 38 44
357 38 44
358 38 44
359 21 4
360 21 4
361 21 4
362 21 4
363 -27 -50
364 -27 -50
365 -27 -50
366 46 -5
367 46 -5
368 46 -5
369 46 -5
370 -44 -10
371 27 -48
372 27 -48
373 27 -48
374 27 -48
375 27 -48
376 28 -45
377 28 -45
378 28 -45
379 28 -45
380 28 -45
381 -30 -26
382 -30 -26
383 -30 -26
384 43 30
385 43 30
386 32 31
387 32 31
388 32 31
389 35 23
390 35 23
391 35 23
392 35 23
393 35 23
394 35 23
395 27 8
396 27 8
397 27 8
398 27 8
399 27 8
400 27 8
401 -12 18
402 -12 18
403 -12 18
404 -12 18
405 -12 18
406 -12 18
407 42 34
408 42 34
409 42 34
410 42 34
411 42 34
412 42 34
413 45 -40
414 45 -40
415 45 -40
416 45 -40
417 45 -40
418 9 46
419 9 46
420 9 46
421 9 46
422 9 46
423 9 46
424 -24 -1
425 -24 -1
426 -24 -1
427 -24 -1
428 -9 50
429 -9 50
430 -9 50
431 -9 50
432 -9 50
433 -9 50
434 -7 47
435 -7 47
436 -7 47
437 -7 47
438 -7 47
439 -7 47
440 -7 47
441 11 43
442 11 43
443 11 43
444 11 43
445 5 -7
446 5 -7
447 5 -7
448 5 -7
449 20 -28
450 20 -28
451 20 -28
452 -24 -13
453 -24 -13
454 21 24
455 21 24
456 21 24
457 21 24
458 21 24
459 -13 34
460 -13 34
461 -13 34
462 -13 34
463 -13 34
464 -13 34
465 -13 34
466 35 16
467 35 16
468 -47 -1
469 -47 -1
470 -47 -1
471 -47 -1
472 -47 -1
473 -47 -1
474 8 39
475 8 39
476 8 39
477 8 39
478 8 39
479 8 39
480 38 35
481 38 35
482 38 35
483 38 35
484 38 35
485 15 -22
486 15 -22
487 15 -22
488 15 -22
489 15 -22
490 -19 46
491 -19 46
492 -19 46
493 -19 46
494 -41 28
495 -41 28
496 -41 28
497 -41 28
498 -6 -2
499 -6 -2
500 -6 -2
501 -6 -2
502 -44 36
503 -44 36
504 -44 36
505 -44 36
506 -23 7
507 -23 7
508 -23 7
509 -23 7
510 -23 7
511 -23 7
512 -33 13
513 -33 13
514 -33 13
515 -33 13
516 -33 13
517 -1 13
518 -1 13
519 -1 13
520 -1 13
521 -1 13
522 -1 13
523 -31 48
524 -31 48
525 -31 48
526 -32 11
527 -32 11
528 -32 11
529 -32 11
530 -32 11
531 -32 11
532 -35 15
533 -35 15
534 -35 15
535 -35 15
536 -31 -11
537 -31 -11
538 -31 -11
539 -31 -11
540 -31 -11
541 -31 -11
542 -31 -11
543 22 -16
544 22 -16
545 22 -16
546 22 -16
547 22 -16
548 22 -16
549 22 -16
550 6 49
551 6 49
552 6 49
553 6 49
554 6 49
555 -37 20
556 -37 20
557 -37 20
558 -37 20
559 -37 20
560 -14 29
561 -14 29
562 -14 29
563 -14 29
564 -14 29
565 40 29
566 40 29
567 40 29
568 40 29
569 40 29
570 40 29
571 40 29
572 -46 -24
573 -46 -24
574 32 -11
575 32 -11
576 -15 37
577 -15 37
578 -15 37
579 -15 37
580 16 9
581 16 9
582 16 9
583 16 9
584 16 9
585 -9 20
586 -9 20
587 -9 20
588 -9 20
589 -9 20
590 43 -46
591 43 -46
592 43 -46
593 43 -46
594 43 -46
595 43 -46
596 43 -46
597 43 -46
598 15 30
599 15 30
600 15 30
601 47 38
602 47 38
603 47 38
604 47 38
605 47 38
606 -26 -37
607 -26 -37
608 -26 -37
609 -26 -37
610 -26 -37
611 -26 -37
612 37 22
613 37 22
614 4 -29
615 4 -29
616 4 -29
617 4 -29
618 4 -29
619 -22 9
620 -22 9
621 -22 9
622 -22 9
623 -22 9
624 -22 9
625 21 -7
626 21 -7
627 21 -7
628 21 -7
629 21 -7
630 21 -7
631 21 -7
632 21 -7
633 25 -7
634 25 -7
635 25 -7
636 25 -7
637 25 -7
638 25 -7
639 -13 -23
640 -13 -23
641 -13 -23
642 -13 -23
643 2 -40
644 2 -40
645 2 -40
646 2 -40
647 48 20
648 48 20
649 48 20
650 48 20
651 -12 -23
652 -12 -23
653 -12 -23
654 -12 -23
655 -12 -23
656 -12 -23
657 -34 -32
658 -34 -32
659 -34 -32
660 -34 -32
661 -27 48
662 -27 48
663 -27 48
664 -27 48
665 -27 48
666 -50 -21
667 -50 -21
668 -50 -21
669 13 0
670 13 0
671 13 0
672 13 0
673 13 0
674 48 49
675 48 49
676 48 49
677 -9 34
678 -9 34
679 -9 34
680 -15 -46
681 -15 -46
682 -15 -46
683 -15 -46
684 -15 -46
685 -15 -46
686 43 -18
687 43 -18
688 43 -18
689 43 -18
690 43 -18
691 43 -18
692 -45 -25
693 -45 -25
694 -45 -25
695 -45 -25
DEMAND_SECTION
1 0
2 400
3 200
4 100
5 10
6 400
7 200
8 200
9 20
10 20
11 20
12 10
13 400
14 200
15 20
16 20
17 400
18 100
19 20
20 10
21 400
22 100
23 20
24 20
25 20
26 20
27 200
28 100
29 20
30 20
31 200
32 100
33 10
34 400
35 100
36 20
37 20
38 20
39 10
40 400
41 100
42 20
43 20
44 20
45 20
46 400
47 100
48 20
49 20
50 20
51 20
52 10
53 400
54 200
55 20
56 20
57 10
58 400
59 200
60 20
61 20
62 20
63 20
64 400
65 200
66 20
67 20
68 20
69 200
70 100
71 20
72 20
73 20
74 10
75 200
76 100
77 20
78 400
79 400
80 20
81 400
82 400
83 20
84 20
85 20
86 400
87 400
88 100
89 400
90 400
91 20
92 20
93 20
94 20
95 10
96 400
97 400
98 100
99 10
100 200
101 100
102 20
103 20
104 20
105 20
106 10
107 200
108 100
109 400
110 400
111 100
112 20
113 20
114 400
115 100
116 20
117 10
118 400
119 200
120 100
121 20
122 20
123 10
124 400
125 20
126 400
127 100
128 20
129 20
130 20
131 10
132 400
133 20
134 20
135 400
136 400
137 100
138 20
139 20
140 20
141 20
142 10
143 200
144 100
145 20
146 10
147 400
148 400
149 100
150 20
151 20
152 400
153 400
154 20
155 20
156 20
157 20
158 10
159 400
160 400
161 20
162 20
163 20
164 400
165 400
166 100
167 10
168 200
169 100
170 20
171 10
172 400
173 200
174 20
175 20
176 200
177 100
178 20
179 400
180 400
181 100
182 20
183 20
184 10
185 400
186 200
187 100
188 20
189 20
190 20
191 20
192 200
193 100
194 10
195 400
196 20
197 20
198 20
199 10
200 400
201 400
202 100
203 20
204 400
205 20
206 20
207 400
208 400
209 100
210 20
211 10
212 400
213 100
214 20
215 20
216 10
217 400
218 20
219 20
220 20
221 20
222 400
223 200
224 100
225 20
226 20
227 20
228 20
229 10
230 400
231 400
232 200
233 400
234 200
235 400
236 20
237 20
238 20
239 400
240 400
241 200
242 400
243 100
244 20
245 20
246 20
247 400
248 200
249 100
250 20
251 200
252 100
253 400
254 20
255 400
256 400
257 20
258 20
259 20
260 10
261 400
262 400
263 100
264 20
265 20
266 20
267 20
268 400
269 20
270 20
271 20
272 10
273 400
274 400
275 400
276 400
277 100
278 20
279 20
280 20
281 200
282 100
283 20
284 10
285 400
286 100
287 20
288 20
289 20
290 10
291 400
292 400
293 10
294 400
295 400
296 400
297 100
298 20
299 20
300 20
301 10
302 400
303 20
304 20
305 20
306 20
307 400
308 400
309 100
310 400
311 200
312 100
313 400
314 200
315 20
316 20
317 20
318 400
319 200
320 100
321 20
322 20
323 10
324 400
325 400
326 20
327 20
328 20
329 20
330 10
331 400
332 400
333 100
334 20
335 20
336 400
337 400
338 100
339 20
340 20
341 400
342 400
343 20
344 400
345 400
346 100
347 20
348 20
349 20
350 400
351 100
352 10
353 400
354 200
355 20
356 20
357 20
358 20
359 400
360 20
361 20
362 10
363 400
364 200
365 20
366 400
367 20
368 20
369 20
370 400
371 400
372 400
373 100
374 20
375 10
376 400
377 400
378 20
379 20
380 10
381 400
382 400
383 200
384 400
385 100
386 400
387 100
388 20
389 400
390 200
391 20
392 20
393 20
394 20
395 400
396 200
397 100
398 20
399 20
400 20
401 400
402 200
403 20
404 20
405 20
406 20
407 200
408 20
409 20
410 20
411 20
412 10
413 200
414 20
415 20
416 20
417 10
418 400
419 200
420 20
421 20
422 20
423 10
424 400
425 400
426 100
427 20
428 200
429 20
430 20
431 20
432 20
433 10
434 400
435 400
436 100
437 20
438 20
439 20
440 10
441 200
442 100
443 20
444 10
445 400
446 20
447 20
448 10
449 200
450 100
451 10
452 400
453 10
454 200
455 100
456 20
457 20
458 10
459 400
460 400
461 100
462 20
463 20
464 20
465 10
466 400
467 100
468 400
469 20
470 20
471 20
472 20
473 10
474 400
475 20
476 20
477 20
478 20
479 10
480 400
481 200
482 100
483 20
484 10
485 200
486 20
487 20
488 20
489 10
490 400
491 400
492 20
493 20
494 400
495 20
496 20
497 10
498 400
499 400
500 100
501 20
502 400
503 400
504 100
505 10
506 400
507 200
508 100
509 20
510 20
511 10
512 400
513 200
514 20
515 20
516 10
517 400
518 100
519 20
520 20
521 20
522 20
523 400
524 200
525 20
526 200
527 100
528 20
529 20
530 20
531 10
532 200
533 100
534 20
535 20
536 400
537 100
538 20
539 20
540 20
541 20
542 10
543 400
544 200
545 20
546 20
547 20
548 20
549 10
550 200
551 100
552 20
553 20
554 10
555 200
556 20
557 20
558 20
559 10
560 400
561 400
562 100
563 20
564 10
565 400
566 200
567 100
568 20
569 20
570 20
571 20
572 400
573 100
574 400
575 20
576 400
577 100
578 20
579 20
580 400
581 200
582 20
583 20
584 10
585 200
586 20
587 20
588 20
589 20
590 400
591 200
592 100
593 20
594 20
595 20
596 20
597 10
598 400
599 100
600 10
601 400
602 200
603 100
604 20
605 20
606 400
607 200
608 100
609 20
610 20
611 20
612 400
613 100
614 400
615 200
616 20
617 20
618 10
619 400
620 200
621 100
622 20
623 20
624 10
625 400
626 400
627 100
628 20
629 20
630 20
631 20
632 10
633 400
634 200
635 20
636 20
637 20
638 20
639 400
640 20
641 20
642 10
643 400
644 200
645 100
646 10
647 200
648 100
649 20
650 10
651 400
652 400
653 20
654 20
655 20
656 10
657 400
658 200
659 100
660 10
661 200
662 100
663 20
664 20
665 10
666 400
667 400
668 200
669 400
670 400
671 20
672 20
673 20
674 400
675 400
676 100
677 200
678 100
679 20
680 400
681 400
682 20
683 20
684 20
685 20
686 400
687 200
688 20
689 20
690 20
691 10
692 400
693 400
694 100
695 20
DEPOT_SECTION
1
-1
EOF