SDVRP instances/custom_instances/p04_1_splitx10_0.sol
694 -1 4 3 2 668 669 672 671 670 -8 11 164 163 166 165 376 378 375 379 377 450 448 -13 12 272 273 97 214 211 -31 124 123 343 347 348 345 346 344 365 368 367 366 -33 38 36 35 37 425 426 423 424 106 107 191 193 192 -34 508 505 507 506 510 509 618 620 621 41 44 39 40 42 43 -75 74 76 327 323 324 325 329 77 79 78 -81 80 206 207 131 -83 82 84 64 63 65 67 66 428 430 427 431 432 429 438 435 439 436 437 434 433 -86 85 598 597 599 312 315 316 314 313 -87 474 476 478 477 442 440 441 443 420 419 421 417 422 238 240 239 -96 95 638 650 651 -105 55 53 52 56 54 374 373 372 371 370 171 -120 117 119 118 122 121 283 280 282 281 484 485 487 486 488 446 444 447 445 -132 133 167 170 168 169 416 412 415 414 413 594 590 589 591 593 595 592 596 251 250 174 173 172 -155 157 152 154 156 153 151 143 145 144 142 310 309 311 205 204 -162 158 160 161 159 135 134 136 137 139 138 141 140 454 455 457 456 -176 175 177 72 69 70 71 73 68 363 364 362 246 247 -180 183 179 178 182 181 18 19 17 16 473 475 -184 185 188 189 186 190 187 332 333 330 334 331 648 646 649 -195 197 194 198 196 449 9 10 7 303 305 302 304 301 547 543 542 548 544 546 545 -200 199 202 615 614 616 617 613 349 350 351 -201 102 100 104 101 103 99 292 291 290 644 642 645 643 -209 208 210 631 624 21 25 24 20 23 22 341 342 340 -213 215 212 98 14 15 381 382 380 307 306 -218 216 219 217 220 46 47 45 48 51 50 49 673 674 675 -222 227 221 223 225 224 226 228 58 61 62 60 59 57 503 255 257 -243 244 241 232 233 693 691 694 692 -249 248 148 146 150 149 147 683 680 679 681 684 682 -264 266 260 263 265 262 261 500 498 497 499 -267 271 269 268 270 113 115 116 114 129 126 127 130 128 125 521 516 -278 279 277 274 276 275 335 336 339 338 337 652 654 653 655 -285 286 284 289 288 287 571 572 242 245 656 657 659 658 308 -293 93 89 90 92 91 94 88 549 550 551 552 553 418 519 517 518 520 -300 297 296 294 299 298 295 411 409 408 407 406 410 479 483 480 482 481 -326 328 666 665 667 369 467 468 470 469 471 472 -357 356 355 354 353 352 601 603 604 602 600 237 234 236 235 647 -358 361 359 360 394 397 398 399 6 5 581 579 -391 388 389 392 390 393 612 611 465 466 395 396 -403 402 405 400 401 404 562 563 561 560 559 586 584 587 588 585 -451 452 230 231 229 539 535 536 540 541 538 537 -453 387 385 386 384 383 570 569 565 564 567 566 568 -458 459 575 578 577 576 28 27 29 26 677 676 678 -461 462 464 460 463 492 490 491 489 662 664 663 661 660 524 523 522 -504 502 501 258 256 254 259 493 495 496 494 556 558 554 557 555 -530 525 527 528 526 529 512 513 511 514 515 531 534 532 533 203 619 622 623 -580 583 582 252 253 690 687 689 688 685 686 573 574 30 32 636 -610 606 609 608 607 605 108 109 112 111 110 639 641 640 -629 626 630 627 625 628 322 319 317 321 320 318 635 632 633 637 634 0 





OBJ=
4405.164
BEST_KNOWN=
0.000